db/inputs/9588122827681368220829393690417213.smt2
(set-logic QF_FP)
(declare-const x0 (_ FloatingPoint 8 24))
(declare-const x1 (_ FloatingPoint 8 24))
(declare-const x2 (_ FloatingPoint 8 24))
(declare-const x3 (_ FloatingPoint 8 24))
(declare-const x4 (_ FloatingPoint 8 24))
(declare-const x5 (_ FloatingPoint 8 24))
(declare-const x6 (_ FloatingPoint 8 24))
(declare-const x7 (_ FloatingPoint 8 24))
(declare-const x8 (_ FloatingPoint 8 24))
(declare-const x9 (_ FloatingPoint 8 24))
(assert (fp.leq (fp.add RNE x5 x3) (fp.neg x7)))
(assert (fp.geq (fp.mul RNE x8 x2) (fp.add RNE x7 x0)))
(assert (fp.leq (fp.mul RNE x8 x1) (fp.div RNE x9 x5)))
(assert (fp.leq (fp.neg x6) (fp.neg x4)))
(assert (fp.leq (fp.div RNE x1 x4) (fp.sub RNE x2 x4)))
(assert (fp.lt (fp.neg x7) (fp.sub RNE x9 x6)))
(assert (fp.leq (fp.mul RNE x5 x3) (fp.sub RNE x9 x9)))
(assert (fp.gt (fp.add RNE x8 x0) (fp.neg x4)))
(assert (fp.eq (fp.mul RNE x9 x3) (fp.add RNE x3 x9)))
(check-sat)
