db/data/9588122827681368220829393690417213.z3.out
sat
-------------------
18.139989236
